presolving:
(round 1, fast)       575 del vars, 0 del conss, 0 add conss, 0 chg bounds, 0 chg sides, 0 chg coeffs, 0 upgd conss, 0 impls, 166175 clqs
(round 2, exhaustive) 575 del vars, 0 del conss, 0 add conss, 0 chg bounds, 0 chg sides, 0 chg coeffs, 166175 upgd conss, 0 impls, 166175 clqs
   (12.0s) probing: 51/330050 (0.0%) - 0 fixings, 0 aggregations, 0 implications, 0 bound changes
   (12.0s) probing aborted: 50/50 successive totally useless probings
   Deactivated symmetry handling methods, since SCIP was built without symmetry detector (SYM=none).
presolving (3 rounds: 3 fast, 2 medium, 2 exhaustive):
 575 deleted vars, 0 deleted constraints, 0 added constraints, 0 tightened bounds, 0 added holes, 0 changed sides, 0 changed coefficients
 0 implications, 166175 cliques
presolved problem has 330050 variables (330050 bin, 0 int, 0 impl, 0 cont) and 166175 constraints
 166175 constraints of type <setppc>
Presolving Time: 11.00

 time | node  | left  |LP iter|LP it/n|mem/heur|mdpt |vars |cons |rows |cuts |sepa|confs|strbr|  dualbound   | primalbound  |  gap   | compl. 
p16.0s|     1 |     0 |     0 |     - |  clique|   0 | 330k| 166k|1150 |   0 |  0 |   0 |   0 | 0.000000e+00 | 8.207535e+03 |    Inf | unknown
 39.0s|     1 |     0 |  1053 |     - |  2046M |   0 | 330k| 166k|1150 |   0 |  0 |  11 |   0 | 6.020453e+03 | 8.207535e+03 |  36.33%| unknown
 40.0s|     1 |     0 |  1671 |     - |  2046M |   0 | 330k| 166k|1382 | 232 |  1 |  11 |   0 | 6.617463e+03 | 8.207535e+03 |  24.03%| unknown
 46.0s|     1 |     0 |  1823 |     - |  2133M |   0 | 330k| 166k|1419 | 269 |  2 |  11 |   0 | 6.666881e+03 | 8.207535e+03 |  23.11%| unknown
 51.0s|     1 |     0 |  1843 |     - |  2145M |   0 | 330k| 166k|1423 | 273 |  3 |  11 |   0 | 6.669475e+03 | 8.207535e+03 |  23.06%| unknown
 56.0s|     1 |     0 |  1859 |     - |  2150M |   0 | 330k| 166k|1432 | 282 |  4 |  11 |   0 | 6.669777e+03 | 8.207535e+03 |  23.06%| unknown
 62.0s|     1 |     0 |  1898 |     - |  2158M |   0 | 330k| 166k|1449 | 299 |  5 |  11 |   0 | 6.679506e+03 | 8.207535e+03 |  22.88%| unknown
 69.0s|     1 |     0 |  1911 |     - |  2192M |   0 | 330k| 166k|1460 | 310 |  6 |  11 |   0 | 6.680559e+03 | 8.207535e+03 |  22.86%| unknown
 76.0s|     1 |     0 |  1959 |     - |  2202M |   0 | 330k| 166k|1475 | 325 |  7 |  11 |   0 | 6.684410e+03 | 8.207535e+03 |  22.79%| unknown
 83.0s|     1 |     0 |  1990 |     - |  2235M |   0 | 330k| 166k|1484 | 334 |  8 |  11 |   0 | 6.685364e+03 | 8.207535e+03 |  22.77%| unknown
 90.0s|     1 |     0 |  2035 |     - |  2247M |   0 | 330k| 166k|1492 | 342 |  9 |  11 |   0 | 6.689031e+03 | 8.207535e+03 |  22.70%| unknown
 96.0s|     1 |     0 |  2090 |     - |  2250M |   0 | 330k| 166k|1514 | 364 | 10 |  11 |   0 | 6.692950e+03 | 8.207535e+03 |  22.63%| unknown
  103s|     1 |     0 |  2155 |     - |  2264M |   0 | 330k| 166k|1459 | 378 | 11 |  11 |   0 | 6.698055e+03 | 8.207535e+03 |  22.54%| unknown
  108s|     1 |     0 |  2216 |     - |  2291M |   0 | 330k| 166k|1469 | 388 | 12 |  11 |   0 | 6.699817e+03 | 8.207535e+03 |  22.50%| unknown
  111s|     1 |     0 |  2251 |     - |  2305M |   0 | 330k| 166k|1479 | 398 | 13 |  11 |   0 | 6.702813e+03 | 8.207535e+03 |  22.45%| unknown
 time | node  | left  |LP iter|LP it/n|mem/heur|mdpt |vars |cons |rows |cuts |sepa|confs|strbr|  dualbound   | primalbound  |  gap   | compl. 
  113s|     1 |     0 |  2253 |     - |  2311M |   0 | 330k| 166k|1483 | 402 | 14 |  11 |   0 | 6.702925e+03 | 8.207535e+03 |  22.45%| unknown
  116s|     1 |     0 |  2303 |     - |  2311M |   0 | 330k| 166k|1491 | 410 | 15 |  11 |   0 | 6.703723e+03 | 8.207535e+03 |  22.43%| unknown
  117s|     1 |     0 |  2321 |     - |  2311M |   0 | 330k| 166k|1495 | 414 | 16 |  11 |   0 | 6.704610e+03 | 8.207535e+03 |  22.42%| unknown
  121s|     1 |     0 |  2355 |     - |  2314M |   0 | 330k| 166k|1469 | 417 | 17 |  11 |   0 | 6.704780e+03 | 8.207535e+03 |  22.41%| unknown
  123s|     1 |     0 |  2379 |     - |  2315M |   0 | 330k| 166k|1474 | 422 | 18 |  11 |   0 | 6.704888e+03 | 8.207535e+03 |  22.41%| unknown
  125s|     1 |     0 |  2385 |     - |  2316M |   0 | 330k| 166k|1476 | 424 | 19 |  11 |   0 | 6.704967e+03 | 8.207535e+03 |  22.41%| unknown
  127s|     1 |     0 |  2394 |     - |  2316M |   0 | 330k| 166k|1481 | 429 | 20 |  11 |   0 | 6.705093e+03 | 8.207535e+03 |  22.41%| unknown
  128s|     1 |     0 |  2399 |     - |  2317M |   0 | 330k| 166k|1482 | 430 | 21 |  11 |   0 | 6.705144e+03 | 8.207535e+03 |  22.41%| unknown
  130s|     1 |     0 |  2402 |     - |  2317M |   0 | 330k| 166k|1484 | 432 | 22 |  11 |   0 | 6.705252e+03 | 8.207535e+03 |  22.40%| unknown
  332s|     1 |     2 | 12694 |     - |  2345M |   0 | 330k| 166k|1484 | 432 | 24 |  11 |  25 | 6.706143e+03 | 8.207535e+03 |  22.39%| unknown
* 846s|    38 |    37 | 14003 | 313.5 |strongbr|  33 | 330k| 166k|1437 | 474 |  2 |  11 | 835 | 6.706160e+03 | 6.794944e+03 |   1.32%| unknown
* 943s|    49 |    26 | 14500 | 252.0 |strongbr|  33 | 330k| 166k|1429 | 493 |  1 |  21 |1006 | 6.706160e+03 | 6.733264e+03 |   0.40%| unknown
* 950s|    49 |    26 | 14533 | 252.7 |    LP  |  33 | 330k| 166k|1431 | 495 |  9 |  46 |1014 | 6.706160e+03 | 6.732737e+03 |   0.40%| unknown
*1109s|    68 |    41 | 15076 | 189.2 |    LP  |  33 | 330k| 166k|1428 | 505 |  6 | 108 |1326 | 6.706242e+03 | 6.731299e+03 |   0.37%| unknown
*1175s|    77 |    46 | 15327 | 170.1 |strongbr|  33 | 330k| 166k|1419 | 505 |  2 | 177 |1460 | 6.706242e+03 | 6.731171e+03 |   0.37%| unknown
 time | node  | left  |LP iter|LP it/n|mem/heur|mdpt |vars |cons |rows |cuts |sepa|confs|strbr|  dualbound   | primalbound  |  gap   | compl. 
*1212s|    81 |    39 | 15536 | 164.2 |strongbr|  33 | 330k| 166k|1419 | 506 |  2 | 215 |1529 | 6.706242e+03 | 6.725751e+03 |   0.29%| unknown
*1215s|    81 |    38 | 15536 | 164.2 |strongbr|  33 | 330k| 166k|1419 | 506 |  2 | 215 |1537 | 6.706242e+03 | 6.724360e+03 |   0.27%| unknown
*1239s|    87 |    29 | 15749 | 155.2 |strongbr|  33 | 330k| 166k|1418 | 506 |  1 | 232 |1578 | 6.706242e+03 | 6.721247e+03 |   0.22%| unknown
*1263s|    88 |    28 | 15810 | 154.1 |strongbr|  33 | 330k| 166k|1418 | 506 |  6 | 299 |1625 | 6.706242e+03 | 6.721043e+03 |   0.22%| unknown
 1423s|   100 |    30 | 16493 | 142.3 |  2577M |  33 | 330k| 166k|1420 | 522 |  4 | 714 |1935 | 6.706242e+03 | 6.721043e+03 |   0.22%| unknown
*1456s|   105 |    27 | 16708 | 137.6 |strongbr|  33 | 330k| 166k|1418 | 522 |  4 | 824 |1995 | 6.706242e+03 | 6.720610e+03 |   0.21%| unknown
*1538s|   120 |    26 | 17248 | 124.8 |strongbr|  33 | 330k| 167k|1423 | 531 |  4 |1076 |2132 | 6.706242e+03 | 6.720523e+03 |   0.21%| unknown
*1644s|   131 |    35 | 17481 | 116.0 |    LP  |  33 | 330k| 167k|1417 | 534 | 14 |1144 |2337 | 6.706282e+03 | 6.720167e+03 |   0.21%| unknown
*1647s|   133 |    25 | 17496 | 114.3 |strongbr|  33 | 330k| 167k|1417 | 534 |  1 |1144 |2341 | 6.706282e+03 | 6.713892e+03 |   0.11%|   5.89%
*1649s|   133 |    25 | 17496 | 114.3 |strongbr|  33 | 330k| 167k|1417 | 534 |  1 |1149 |2343 | 6.706282e+03 | 6.713688e+03 |   0.11%|   5.89%
*1651s|   133 |    25 | 17503 | 114.4 |strongbr|  33 | 330k| 167k|1417 | 534 |  3 |1156 |2346 | 6.706282e+03 | 6.713598e+03 |   0.11%|   5.89%
*1741s|   144 |    22 | 17901 | 108.4 |    LP  |  33 | 330k| 167k|1423 | 548 |  6 |1341 |2496 | 6.706282e+03 | 6.711986e+03 |   0.09%|   6.95%
*1779s|   155 |    24 | 18141 | 102.2 |    LP  |  33 | 330k| 167k|1422 | 555 |  2 |1349 |2560 | 6.706282e+03 | 6.711017e+03 |   0.07%|   8.10%
*1856s|   171 |    21 | 18660 |  95.6 |strongbr|  33 | 330k| 167k|1420 | 565 |  2 |1413 |2693 | 6.706282e+03 | 6.709718e+03 |   0.05%|  13.20%
*1895s|   176 |    19 | 18880 |  94.2 |strongbr|  33 | 330k| 167k|1420 | 565 |  1 |1479 |2770 | 6.706282e+03 | 6.708992e+03 |   0.04%|  16.00%
 time | node  | left  |LP iter|LP it/n|mem/heur|mdpt |vars |cons |rows |cuts |sepa|confs|strbr|  dualbound   | primalbound  |  gap   | compl. 
*1930s|   183 |    17 | 19178 |  92.2 |strongbr|  33 | 330k| 167k|1423 | 573 |  2 |1520 |2821 | 6.706282e+03 | 6.708343e+03 |   0.03%|  19.09%
 2113s|   200 |    20 | 19596 |  86.4 |  2723M |  33 | 330k| 167k|1421 | 580 |  1 |1594 |3155 | 6.706317e+03 | 6.708343e+03 |   0.03%|  24.98%

SCIP Status        : solving was interrupted [gap limit reached]
Solving Time (sec) : 2461.00
Solving Nodes      : 287
Primal Bound       : +6.70834257056200e+03 (21 solutions)
Dual Bound         : +6.70775552972919e+03
Gap                : 0.01 %
Trying to solve problem with DFJ2 version 2.0 Method...
2461.0
Route:  [[0, 24], [1, 0], [2, 1], [3, 2], [4, 26], [5, 3], [6, 5], [7, 29], [8, 7], [9, 8], [10, 9], [11, 12], [12, 13], [13, 11], [14, 16], [15, 38], [16, 17], [17, 18], [18, 41], [19, 20], [20, 44], [21, 45], [22, 21], [23, 47], [24, 23], [25, 4], [26, 25], [27, 51], [28, 27], [29, 6], [30, 31], [31, 32], [32, 34], [33, 10], [34, 33], [35, 58], [36, 35], [37, 36], [38, 14], [39, 15], [40, 39], [41, 40], [42, 19], [43, 42], [44, 43], [45, 22], [46, 69], [47, 46], [48, 49], [49, 50], [50, 73], [51, 28], [52, 30], [53, 52], [54, 53], [55, 54], [56, 55], [57, 56], [58, 57], [59, 60], [60, 37], [61, 62], [62, 63], [63, 61], [64, 86], [65, 64], [66, 65], [67, 66], [68, 67], [69, 70], [70, 92], [71, 48], [72, 71], [73, 72], [74, 75], [75, 76], [76, 77], [77, 78], [78, 79], [79, 80], [80, 103], [81, 59], [82, 81], [83, 82], [84, 83], [85, 84], [86, 85], [87, 88], [88, 89], [89, 112], [90, 91], [91, 68], [92, 93], [93, 115], [94, 117], [95, 96], [96, 97], [97, 74], [98, 99], [99, 100], [100, 122], [101, 102], [102, 125], [103, 105], [104, 128], [105, 104], [106, 108], [107, 106], [108, 109], [109, 87], [110, 133], [111, 110], [112, 90], [113, 114], [114, 137], [115, 116], [116, 94], [117, 140], [118, 95], [119, 118], [120, 119], [121, 145], [122, 98], [123, 121], [124, 101], [125, 124], [126, 147], [127, 150], [128, 129], [129, 127], [130, 107], [131, 130], [132, 131], [133, 111], [134, 157], [135, 134], [136, 159], [137, 113], [138, 139], [139, 162], [140, 138], [141, 142], [142, 143], [143, 120], [144, 166], [145, 146], [146, 123], [147, 171], [148, 126], [149, 148], [150, 151], [151, 152], [152, 153], [153, 177], [154, 132], [155, 154], [156, 179], [157, 158], [158, 135], [159, 160], [160, 136], [161, 184], [162, 161], [163, 141], [164, 163], [165, 164], [166, 165], [167, 144], [168, 167], [169, 168], [170, 169], [171, 172], [172, 149], [173, 195], [174, 173], [175, 174], [176, 175], [177, 155], [178, 202], [179, 178], [180, 203], [181, 156], [182, 181], [183, 182], [184, 207], [185, 186], [186, 187], [187, 188], [188, 189], [189, 211], [190, 192], [191, 190], [192, 191], [193, 170], [194, 193], [195, 196], [196, 220], [197, 198], [198, 199], [199, 221], [200, 176], [201, 200], [202, 201], [203, 204], [204, 180], [205, 206], [206, 183], [207, 208], [208, 185], [209, 232], [210, 209], [211, 210], [212, 213], [213, 214], [214, 215], [215, 216], [216, 194], [217, 240], [218, 217], [219, 218], [220, 197], [221, 222], [222, 223], [223, 224], [224, 225], [225, 226], [226, 248], [227, 228], [228, 205], [229, 227], [230, 253], [231, 230], [232, 231], [233, 234], [234, 257], [235, 212], [236, 235], [237, 236], [238, 237], [239, 238], [240, 239], [241, 265], [242, 219], [243, 242], [244, 243], [245, 268], [246, 245], [247, 246], [248, 247], [249, 250], [250, 251], [251, 252], [252, 229], [253, 276], [254, 255], [255, 233], [256, 279], [257, 258], [258, 259], [259, 260], [260, 282], [261, 262], [262, 263], [263, 264], [264, 241], [265, 289], [266, 244], [267, 266], [268, 267], [269, 270], [270, 271], [271, 249], [272, 296], [273, 272], [274, 273], [275, 274], [276, 254], [277, 299], [278, 277], [279, 280], [280, 281], [281, 256], [282, 305], [283, 284], [284, 306], [285, 261], [286, 285], [287, 286], [288, 287], [289, 288], [290, 292], [291, 269], [292, 291], [293, 317], [294, 293], [295, 294], [296, 295], [297, 298], [298, 275], [299, 300], [300, 324], [301, 278], [302, 301], [303, 302], [304, 303], [305, 283], [306, 329], [307, 330], [308, 309], [309, 310], [310, 311], [311, 333], [312, 335], [313, 290], [314, 313], [315, 314], [316, 315], [317, 316], [318, 319], [319, 343], [320, 297], [321, 320], [322, 345], [323, 322], [324, 323], [325, 326], [326, 349], [327, 304], [328, 327], [329, 307], [330, 331], [331, 308], [332, 354], [333, 334], [334, 312], [335, 336], [336, 359], [337, 339], [338, 337], [339, 338], [340, 364], [341, 342], [342, 318], [343, 344], [344, 321], [345, 346], [346, 347], [347, 348], [348, 370], [349, 325], [350, 351], [351, 352], [352, 328], [353, 377], [354, 353], [355, 332], [356, 355], [357, 356], [358, 357], [359, 382], [360, 361], [361, 362], [362, 385], [363, 340], [364, 363], [365, 341], [366, 367], [367, 365], [368, 391], [369, 368], [370, 369], [371, 372], [372, 373], [373, 350], [374, 375], [375, 376], [376, 399], [377, 378], [378, 379], [379, 380], [380, 381], [381, 383], [382, 358], [383, 384], [384, 360], [385, 387], [386, 409], [387, 410], [388, 412], [389, 366], [390, 389], [391, 392], [392, 393], [393, 394], [394, 371], [395, 418], [396, 374], [397, 396], [398, 397], [399, 400], [400, 401], [401, 402], [402, 403], [403, 404], [404, 405], [405, 406], [406, 407], [407, 430], [408, 386], [409, 408], [410, 411], [411, 388], [412, 390], [413, 435], [414, 415], [415, 416], [416, 414], [417, 395], [418, 417], [419, 420], [420, 421], [421, 398], [422, 444], [423, 422], [424, 423], [425, 424], [426, 448], [427, 426], [428, 427], [429, 428], [430, 429], [431, 433], [432, 431], [433, 432], [434, 459], [435, 434], [436, 413], [437, 438], [438, 439], [439, 462], [440, 419], [441, 440], [442, 466], [443, 442], [444, 443], [445, 446], [446, 447], [447, 470], [448, 425], [449, 450], [450, 451], [451, 474], [452, 453], [453, 454], [454, 455], [455, 456], [456, 478], [457, 481], [458, 457], [459, 436], [460, 484], [461, 437], [462, 461], [463, 464], [464, 441], [465, 489], [466, 465], [467, 445], [468, 469], [469, 467], [470, 471], [471, 472], [472, 449], [473, 496], [474, 473], [475, 452], [476, 475], [477, 476], [478, 479], [479, 480], [480, 504], [481, 458], [482, 505], [483, 460], [484, 483], [485, 463], [486, 485], [487, 488], [488, 511], [489, 490], [490, 468], [491, 513], [492, 515], [493, 492], [494, 493], [495, 494], [496, 497], [497, 498], [498, 499], [499, 477], [500, 523], [501, 500], [502, 501], [503, 502], [504, 482], [505, 528], [506, 507], [507, 508], [508, 509], [509, 510], [510, 486], [511, 487], [512, 535], [513, 514], [514, 537], [515, 491], [516, 540], [517, 518], [518, 495], [519, 543], [520, 519], [521, 520], [522, 521], [523, 522], [524, 525], [525, 503], [526, 548], [527, 526], [528, 527], [529, 506], [530, 529], [531, 530], [532, 531], [533, 534], [534, 556], [535, 536], [536, 512], [537, 538], [538, 561], [539, 516], [540, 517], [541, 542], [542, 566], [543, 541], [544, 567], [545, 544], [546, 547], [547, 524], [548, 549], [549, 550], [550, 551], [551, 574], [552, 553], [553, 554], [554, 552], [555, 532], [556, 533], [557, 555], [558, 557], [559, 558], [560, 559], [561, 560], [562, 539], [563, 562], [564, 563], [565, 564], [566, 565], [567, 545], [568, 546], [569, 568], [570, 569], [571, 570], [572, 571], [573, 572], [574, 573]]
A Solution was found
Objective value: 6708.3
Problem solved in 21789 iterations
Problem solved in 287 nodes
Final Route Configuration succesfully created at:
data/routes/rat575.csv
